benchmarks/bfuzz0/29327101242910258141618515310319948771.smt2
(set-logic QF_FP)
(declare-const x0 (_ FloatingPoint 11 53))
(declare-const x1 (_ FloatingPoint 11 53))
(declare-const x2 (_ FloatingPoint 11 53))
(declare-const x3 (_ FloatingPoint 11 53))
(declare-const x4 (_ FloatingPoint 11 53))
(declare-const x5 (_ FloatingPoint 11 53))
(declare-const x6 (_ FloatingPoint 11 53))
(declare-const x7 (_ FloatingPoint 11 53))
(declare-const x8 (_ FloatingPoint 11 53))
(assert (fp.geq (fp.add RNE (fp.neg x6) (fp.div RNE x5 x5)) (fp.mul RNE (fp.neg x3) (fp.sub RNE x1 x2))))
(assert (fp.leq (fp.neg (fp.mul RNE x6 x8)) (fp.neg (fp.mul RNE x3 x8))))
(check-sat)
