db/data/29327101242910258141618515310319948771.z3.out
sat
-------------------
84.232558338
